(set-info :smt-lib-version 2.6)
(set-logic QF_NIA)
(set-info :source |
Generated by: Cristina Borralleras, Daniel Larraz, Albert Oliveras, Enric Rodriguez-Carbonell, Albert Rubio
Generated on: 2017-04-27
Generator: VeryMax
Application: Termination proving
Target solver: barcelogic
|)
(set-info :license "https://creativecommons.org/licenses/by/4.0/")
(set-info :category "industrial")
(set-info :status sat)
(declare-fun Nl3arg11 () Int)
(declare-fun Nl3arg21 () Int)
(declare-fun Nl3arg12 () Int)
(declare-fun Nl3arg22 () Int)
(declare-fun lam0n0 () Int)
(declare-fun lam0n1 () Int)
(declare-fun lam0n2 () Int)
(declare-fun lam0n3 () Int)
(declare-fun lam0n4 () Int)
(declare-fun Nl3CT1 () Int)
(declare-fun Nl3CT2 () Int)
(declare-fun lam1n0 () Int)
(declare-fun lam1n1 () Int)
(declare-fun lam1n2 () Int)
(declare-fun lam1n3 () Int)
(declare-fun lam1n4 () Int)
(declare-fun lam2n0 () Int)
(declare-fun lam2n1 () Int)
(declare-fun lam2n2 () Int)
(declare-fun lam2n3 () Int)
(declare-fun lam2n4 () Int)
(declare-fun lam3n0 () Int)
(declare-fun lam3n1 () Int)
(declare-fun lam3n2 () Int)
(declare-fun lam3n3 () Int)
(declare-fun lam4n0 () Int)
(declare-fun lam4n1 () Int)
(declare-fun lam4n2 () Int)
(declare-fun lam4n3 () Int)
(declare-fun lam5n0 () Int)
(declare-fun lam5n1 () Int)
(declare-fun lam5n2 () Int)
(declare-fun lam5n3 () Int)
(declare-fun lam6n0 () Int)
(declare-fun lam6n1 () Int)
(declare-fun lam6n2 () Int)
(declare-fun lam6n3 () Int)
(declare-fun lam6n4 () Int)
(declare-fun lam7n0 () Int)
(declare-fun lam7n1 () Int)
(declare-fun lam7n2 () Int)
(declare-fun lam7n3 () Int)
(declare-fun lam7n4 () Int)
(declare-fun undef3 () Int)
(declare-fun undef4 () Int)
(declare-fun undef9 () Int)
(declare-fun undef10 () Int)
(declare-fun lam11n0 () Int)
(declare-fun lam11n1 () Int)
(declare-fun lam11n2 () Int)
(declare-fun lam11n3 () Int)
(declare-fun RFN1_CT () Int)
(declare-fun RFN1_arg1 () Int)
(declare-fun RFN1_arg2 () Int)
(declare-fun lam9n0 () Int)
(declare-fun lam9n1 () Int)
(declare-fun lam9n2 () Int)
(declare-fun lam9n3 () Int)
(declare-fun lam10n0 () Int)
(declare-fun lam10n1 () Int)
(declare-fun lam10n2 () Int)
(declare-fun lam10n3 () Int)
(declare-fun lam8n0 () Int)
(declare-fun lam8n1 () Int)
(declare-fun lam8n2 () Int)
(declare-fun lam8n3 () Int)
(assert ( and ( <= ( - 1 ) Nl3arg11 ) ( <= Nl3arg11 1 ) ( <= ( - 1 ) Nl3arg21 ) ( <= Nl3arg21 1 ) ( <= ( - 1 ) Nl3arg12 ) ( <= Nl3arg12 1 ) ( <= ( - 1 ) Nl3arg22 ) ( <= Nl3arg22 1 ) ))
(assert ( or ( and ( >= lam0n0 0 ) ( >= lam0n1 0 ) ( >= lam0n2 0 ) ( >= lam0n3 0 ) ( >= lam0n4 0 ) ( > ( + ( * 1 lam0n0 ) ( * ( - 1 ) lam0n1 ) ( * 3 lam0n2 ) ( * Nl3CT1 lam0n3 ) ( * Nl3CT2 lam0n4 ) ( - 1 ) ) 0 ) ( = ( + ( * 1 lam0n1 ) ( * 1 lam0n2 ) ( * Nl3arg11 lam0n3 ) ( * Nl3arg12 lam0n4 ) ) 0 ) ( = ( + ( * ( - 1 ) lam0n0 ) ( * 1 lam0n1 ) ( * ( - 1 ) lam0n2 ) ( * Nl3arg21 lam0n3 ) ( * Nl3arg22 lam0n4 ) ) 0 ) ) ( and ( >= lam1n0 0 ) ( >= lam1n1 0 ) ( >= lam1n2 0 ) ( >= lam1n3 0 ) ( >= lam1n4 0 ) ( > ( + ( * 1 lam1n0 ) ( * ( - 1 ) lam1n1 ) ( * 3 lam1n2 ) ( * Nl3CT1 lam1n3 ) ( * Nl3CT2 lam1n4 ) ( - 1 ( + ( + Nl3CT1 ( * Nl3arg11 ( - 1 ) ) ) ( * Nl3arg21 0 ) ) ) ) 0 ) ( = ( + ( * 1 lam1n1 ) ( * 1 lam1n2 ) ( * Nl3arg11 lam1n3 ) ( * Nl3arg12 lam1n4 ) ( - ( + ( + 0 ( * Nl3arg11 1 ) ) ( * Nl3arg21 1 ) ) ) ) 0 ) ( = ( + ( * ( - 1 ) lam1n0 ) ( * 1 lam1n1 ) ( * ( - 1 ) lam1n2 ) ( * Nl3arg21 lam1n3 ) ( * Nl3arg22 lam1n4 ) ( - ( + 0 ( * Nl3arg21 1 ) ) ) ) 0 ) ) ))
(assert ( or ( and ( >= lam0n0 0 ) ( >= lam0n1 0 ) ( >= lam0n2 0 ) ( >= lam0n3 0 ) ( >= lam0n4 0 ) ( > ( + ( * 1 lam0n0 ) ( * ( - 1 ) lam0n1 ) ( * 3 lam0n2 ) ( * Nl3CT1 lam0n3 ) ( * Nl3CT2 lam0n4 ) ( - 1 ) ) 0 ) ( = ( + ( * 1 lam0n1 ) ( * 1 lam0n2 ) ( * Nl3arg11 lam0n3 ) ( * Nl3arg12 lam0n4 ) ) 0 ) ( = ( + ( * ( - 1 ) lam0n0 ) ( * 1 lam0n1 ) ( * ( - 1 ) lam0n2 ) ( * Nl3arg21 lam0n3 ) ( * Nl3arg22 lam0n4 ) ) 0 ) ) ( and ( >= lam2n0 0 ) ( >= lam2n1 0 ) ( >= lam2n2 0 ) ( >= lam2n3 0 ) ( >= lam2n4 0 ) ( > ( + ( * 1 lam2n0 ) ( * ( - 1 ) lam2n1 ) ( * 3 lam2n2 ) ( * Nl3CT1 lam2n3 ) ( * Nl3CT2 lam2n4 ) ( - 1 ( + ( + Nl3CT2 ( * Nl3arg12 ( - 1 ) ) ) ( * Nl3arg22 0 ) ) ) ) 0 ) ( = ( + ( * 1 lam2n1 ) ( * 1 lam2n2 ) ( * Nl3arg11 lam2n3 ) ( * Nl3arg12 lam2n4 ) ( - ( + ( + 0 ( * Nl3arg12 1 ) ) ( * Nl3arg22 1 ) ) ) ) 0 ) ( = ( + ( * ( - 1 ) lam2n0 ) ( * 1 lam2n1 ) ( * ( - 1 ) lam2n2 ) ( * Nl3arg21 lam2n3 ) ( * Nl3arg22 lam2n4 ) ( - ( + 0 ( * Nl3arg22 1 ) ) ) ) 0 ) ) ))
(assert ( or ( and ( >= lam3n0 0 ) ( >= lam3n1 0 ) ( >= lam3n2 0 ) ( >= lam3n3 0 ) ( > ( + ( * 1 lam3n0 ) ( * 2 lam3n1 ) ( * Nl3CT1 lam3n2 ) ( * Nl3CT2 lam3n3 ) ( - 1 ) ) 0 ) ( = ( + ( * ( - 1 ) lam3n1 ) ( * Nl3arg11 lam3n2 ) ( * Nl3arg12 lam3n3 ) ) 0 ) ( = ( + ( * ( - 1 ) lam3n0 ) ( * ( - 1 ) lam3n1 ) ( * Nl3arg21 lam3n2 ) ( * Nl3arg22 lam3n3 ) ) 0 ) ) ( and ( >= lam4n0 0 ) ( >= lam4n1 0 ) ( >= lam4n2 0 ) ( >= lam4n3 0 ) ( > ( + ( * 1 lam4n0 ) ( * 2 lam4n1 ) ( * Nl3CT1 lam4n2 ) ( * Nl3CT2 lam4n3 ) ( - 1 ( + ( + Nl3CT1 ( * Nl3arg11 ( - 1 ) ) ) ( * Nl3arg21 0 ) ) ) ) 0 ) ( = ( + ( * ( - 1 ) lam4n1 ) ( * Nl3arg11 lam4n2 ) ( * Nl3arg12 lam4n3 ) ( - ( + ( + 0 ( * Nl3arg11 1 ) ) ( * Nl3arg21 1 ) ) ) ) 0 ) ( = ( + ( * ( - 1 ) lam4n0 ) ( * ( - 1 ) lam4n1 ) ( * Nl3arg21 lam4n2 ) ( * Nl3arg22 lam4n3 ) ( - ( + 0 ( * Nl3arg21 1 ) ) ) ) 0 ) ) ))
(assert ( or ( and ( >= lam3n0 0 ) ( >= lam3n1 0 ) ( >= lam3n2 0 ) ( >= lam3n3 0 ) ( > ( + ( * 1 lam3n0 ) ( * 2 lam3n1 ) ( * Nl3CT1 lam3n2 ) ( * Nl3CT2 lam3n3 ) ( - 1 ) ) 0 ) ( = ( + ( * ( - 1 ) lam3n1 ) ( * Nl3arg11 lam3n2 ) ( * Nl3arg12 lam3n3 ) ) 0 ) ( = ( + ( * ( - 1 ) lam3n0 ) ( * ( - 1 ) lam3n1 ) ( * Nl3arg21 lam3n2 ) ( * Nl3arg22 lam3n3 ) ) 0 ) ) ( and ( >= lam5n0 0 ) ( >= lam5n1 0 ) ( >= lam5n2 0 ) ( >= lam5n3 0 ) ( > ( + ( * 1 lam5n0 ) ( * 2 lam5n1 ) ( * Nl3CT1 lam5n2 ) ( * Nl3CT2 lam5n3 ) ( - 1 ( + ( + Nl3CT2 ( * Nl3arg12 ( - 1 ) ) ) ( * Nl3arg22 0 ) ) ) ) 0 ) ( = ( + ( * ( - 1 ) lam5n1 ) ( * Nl3arg11 lam5n2 ) ( * Nl3arg12 lam5n3 ) ( - ( + ( + 0 ( * Nl3arg12 1 ) ) ( * Nl3arg22 1 ) ) ) ) 0 ) ( = ( + ( * ( - 1 ) lam5n0 ) ( * ( - 1 ) lam5n1 ) ( * Nl3arg21 lam5n2 ) ( * Nl3arg22 lam5n3 ) ( - ( + 0 ( * Nl3arg22 1 ) ) ) ) 0 ) ) ))
(assert ( and ( <= ( * ( - 1 ) undef3 ) 0 ) ( not ( <= undef4 0 ) ) ( <= ( + 1 ( * ( - 1 ) undef9 ) ) 0 ) ( not ( <= ( + ( - 1 ) undef3 undef4 ) 0 ) ) ( <= ( + 2 ( * ( - 1 ) undef10 ) ) 0 ) ( <= ( + ( + ( + Nl3CT1 ( * Nl3arg11 0 ) ) ( * Nl3arg21 0 ) ) ( * ( + 0 ( * Nl3arg11 1 ) ) undef3 ) ( * ( + 0 ( * Nl3arg21 1 ) ) undef4 ) ) 0 ) ( <= ( + ( + ( + Nl3CT2 ( * Nl3arg12 0 ) ) ( * Nl3arg22 0 ) ) ( * ( + 0 ( * Nl3arg12 1 ) ) undef3 ) ( * ( + 0 ( * Nl3arg22 1 ) ) undef4 ) ) 0 ) ))
(assert ( or ( and ( and ( >= lam11n0 0 ) ( >= lam11n1 0 ) ( >= lam11n2 0 ) ( >= lam11n3 0 ) ( > ( + ( * 1 lam11n0 ) ( * 2 lam11n1 ) ( * Nl3CT1 lam11n2 ) ( * Nl3CT2 lam11n3 ) ( - 1 ( - ( + ( + RFN1_CT ( * RFN1_arg1 ( - 1 ) ) ) ( * RFN1_arg2 0 ) ) RFN1_CT ) ) ) 0 ) ( = ( + ( * ( - 1 ) lam11n1 ) ( * Nl3arg11 lam11n2 ) ( * Nl3arg12 lam11n3 ) ( - ( - ( + ( + 0 ( * RFN1_arg1 1 ) ) ( * RFN1_arg2 1 ) ) RFN1_arg1 ) ) ) 0 ) ( = ( + ( * ( - 1 ) lam11n0 ) ( * ( - 1 ) lam11n1 ) ( * Nl3arg21 lam11n2 ) ( * Nl3arg22 lam11n3 ) ( - ( - ( + 0 ( * RFN1_arg2 1 ) ) RFN1_arg2 ) ) ) 0 ) ) ( and ( and ( >= lam9n0 0 ) ( >= lam9n1 0 ) ( >= lam9n2 0 ) ( >= lam9n3 0 ) ( > ( + ( * 1 lam9n0 ) ( * 2 lam9n1 ) ( * Nl3CT1 lam9n2 ) ( * Nl3CT2 lam9n3 ) ( - 1 ( - RFN1_CT ) ) ) 0 ) ( = ( + ( * ( - 1 ) lam9n1 ) ( * Nl3arg11 lam9n2 ) ( * Nl3arg12 lam9n3 ) ( - ( - RFN1_arg1 ) ) ) 0 ) ( = ( + ( * ( - 1 ) lam9n0 ) ( * ( - 1 ) lam9n1 ) ( * Nl3arg21 lam9n2 ) ( * Nl3arg22 lam9n3 ) ( - ( - RFN1_arg2 ) ) ) 0 ) ) ( and ( >= lam10n0 0 ) ( >= lam10n1 0 ) ( >= lam10n2 0 ) ( >= lam10n3 0 ) ( > ( + ( * 1 lam10n0 ) ( * 2 lam10n1 ) ( * Nl3CT1 lam10n2 ) ( * Nl3CT2 lam10n3 ) ( - 1 ( + ( - ( + ( + RFN1_CT ( * RFN1_arg1 ( - 1 ) ) ) ( * RFN1_arg2 0 ) ) RFN1_CT ) 1 ) ) ) 0 ) ( = ( + ( * ( - 1 ) lam10n1 ) ( * Nl3arg11 lam10n2 ) ( * Nl3arg12 lam10n3 ) ( - ( - ( + ( + 0 ( * RFN1_arg1 1 ) ) ( * RFN1_arg2 1 ) ) RFN1_arg1 ) ) ) 0 ) ( = ( + ( * ( - 1 ) lam10n0 ) ( * ( - 1 ) lam10n1 ) ( * Nl3arg21 lam10n2 ) ( * Nl3arg22 lam10n3 ) ( - ( - ( + 0 ( * RFN1_arg2 1 ) ) RFN1_arg2 ) ) ) 0 ) ) ) ) ( and ( >= lam8n0 0 ) ( >= lam8n1 0 ) ( >= lam8n2 0 ) ( >= lam8n3 0 ) ( > ( + ( * 1 lam8n0 ) ( * 2 lam8n1 ) ( * Nl3CT1 lam8n2 ) ( * Nl3CT2 lam8n3 ) ( - 1 ) ) 0 ) ( = ( + ( * ( - 1 ) lam8n1 ) ( * Nl3arg11 lam8n2 ) ( * Nl3arg12 lam8n3 ) ) 0 ) ( = ( + ( * ( - 1 ) lam8n0 ) ( * ( - 1 ) lam8n1 ) ( * Nl3arg21 lam8n2 ) ( * Nl3arg22 lam8n3 ) ) 0 ) ) ))
(check-sat)
(exit)
